c SAT Generator for power-law distributed variable frequencies
c -g u -v 20 -c 91 -k 3 -p 2.750000 -b 3.200000 -f /home/schmidt/Devel/ni-kop-sat/data/ensemble/ruf20-91/ruf20-91-690 -u 1 -U 1 -s 248043587
p cnf 20 91
-2 13 -16 0
-9 11 16 0
-4 6 -14 0
10 -17 -19 0
3 -4 -10 0
-10 -16 -17 0
-1 12 13 0
-1 -5 8 0
-9 10 20 0
3 -5 19 0
3 -11 20 0
-16 -19 20 0
2 -11 13 0
-12 13 -19 0
-3 8 -16 0
-3 -5 -11 0
5 9 -19 0
-4 12 20 0
-2 5 -11 0
7 8 14 0
-5 -13 -19 0
5 16 17 0
-9 -16 19 0
12 -15 -20 0
2 12 14 0
5 12 -20 0
-6 14 18 0
9 -11 -12 0
-4 -12 14 0
-1 11 -18 0
5 9 15 0
15 -18 -20 0
5 -14 -17 0
8 -11 -16 0
-7 -11 18 0
2 -15 20 0
3 8 16 0
8 11 18 0
-13 17 19 0
-4 -11 17 0
1 11 -16 0
8 -12 -20 0
2 -8 -11 0
-6 -13 -19 0
-7 -14 -17 0
11 -16 -19 0
-4 -6 -13 0
-4 -7 8 0
-8 11 15 0
-4 -9 -10 0
3 -13 -20 0
-7 8 20 0
4 6 -9 0
-1 -6 -8 0
-4 8 -16 0
1 -2 -8 0
1 -12 16 0
2 4 15 0
-5 9 14 0
2 -12 -18 0
8 -16 -20 0
-1 -2 -10 0
5 8 19 0
-5 -9 15 0
4 11 20 0
-5 -6 19 0
3 10 -19 0
-2 -16 -19 0
-9 -11 -19 0
-3 -13 20 0
-2 4 12 0
-4 5 19 0
-4 12 19 0
1 -12 -16 0
-1 -15 -18 0
-13 15 -17 0
1 -2 20 0
-13 18 -19 0
-8 -10 14 0
1 -5 -18 0
4 -11 19 0
5 9 18 0
7 14 17 0
-7 12 19 0
5 18 -20 0
-2 -5 -10 0
7 9 -13 0
2 8 11 0
8 15 -17 0
7 -11 16 0
6 14 19 0
